# Objective value = 2.9541490112369490e+02
x[0] 1
x[1] 1
x[2] 0
x[3] 0
x[4] 1
x[5] 0
x[6] 1
x[7] 1
x[8] 0
x[9] 0
x[10] 1
x[11] 0
x[12] 1
x[13] 1
x[14] 1
x[15] 1
x[16] 0
x[17] 0
x[18] 0
x[19] 0
x[20] 0
x[21] 0
x[22] 0
x[23] 0
x[24] 0
x[25] 0
x[26] 1
x[27] 1
x[28] 1
x[29] 1
x[30] 0
x[31] 0
x[32] 0
x[33] 0
x[34] 1
x[35] 0
x[36] 1
x[37] 0
x[38] 1
x[39] 0
x[40] 0
x[41] 0
x[42] 0
x[43] 0
x[44] 0
x[45] 1
x[46] 0
x[47] 0
x[48] 0
x[49] 1
x[50] 0
x[51] 1
x[52] 0
x[53] 1
x[54] 0
x[55] 0
x[56] 1
x[57] 0
x[58] 1
x[59] 1
x[60] 1
x[61] 0
x[62] 1
x[63] 0
x[64] 1
x[65] 0
x[66] 1
x[67] 1
x[68] 0
x[69] 0
x[70] 0
x[71] 0
x[72] 1
x[73] 0
x[74] 1
x[75] 1
x[76] 1
x[77] 0
x[78] 0
x[79] 1
x[80] 0
x[81] 0
x[82] 1
x[83] 1
x[84] 1
x[85] 1
x[86] 0
x[87] 1
x[88] 1
x[89] 0
x[90] 1
x[91] 0
x[92] 0
x[93] 1
x[94] 0
x[95] 1
x[96] 0
x[97] 0
x[98] 0
x[99] 1
x[100] 0
x[101] 1
x[102] 1
x[103] 0
x[104] 1
x[105] 1
x[106] 0
x[107] 0
x[108] 1
x[109] 0
x[110] 0
x[111] 0
x[112] 1
x[113] 1
x[114] 1
x[115] 1
x[116] 1
x[117] 1
x[118] 0
x[119] 1
x[120] 0
x[121] 1
x[122] 1
x[123] 1
x[124] 0
x[125] 0
x[126] 1
x[127] 1
x[128] 1
x[129] 0
x[130] 1
x[131] 1
x[132] 0
x[133] 0
x[134] 0
x[135] 1
x[136] 0
x[137] 1
x[138] 0
x[139] 0
x[140] 0
x[141] 1
x[142] 1
x[143] 1
x[144] 0
x[145] 1
x[146] 0
x[147] 1
x[148] 0
x[149] 0
x[150] 1
x[151] 1
x[152] 0
x[153] 1
x[154] 0
x[155] 0
x[156] 1
x[157] 1
x[158] 1
x[159] 0
x[160] 0
x[161] 0
x[162] 1
x[163] 0
x[164] 0
x[165] 1
x[166] 1
x[167] 0
x[168] 1
x[169] 0
x[170] 0
x[171] 0
x[172] 1
x[173] 1
x[174] 0
x[175] 1
x[176] 0
x[177] 1
x[178] 0
x[179] 1
x[180] 1
x[181] 0
x[182] 0
x[183] 0
x[184] 0
x[185] 1
x[186] 0
x[187] 1
x[188] 0
x[189] 0
x[190] 1
x[191] 0
x[192] 0
x[193] 1
x[194] 1
x[195] 0
x[196] 1
x[197] 0
x[198] 1
x[199] 0
x[200] 0
x[201] 0
x[202] 0
x[203] 1
x[204] 1
x[205] 0
x[206] 1
x[207] 1
x[208] 0
x[209] 1
x[210] 1
x[211] 0
x[212] 0
x[213] 0
x[214] 0
x[215] 0
x[216] 0
x[217] 0
x[218] 0
x[219] 0
x[220] 0
x[221] 1
x[222] 0
x[223] 0
x[224] 1
x[225] 1
x[226] 0
x[227] 0
x[228] 0
x[229] 1
x[230] 0
x[231] 0
x[232] 0
x[233] 1
x[234] 1
x[235] 0
x[236] 0
x[237] 0
x[238] 1
x[239] 0
x[240] 1
x[241] 0
x[242] 1
x[243] 1
x[244] 1
x[245] 0
x[246] 0
x[247] 0
x[248] 0
x[249] 1
x[250] 1
x[251] 1
x[252] 0
x[253] 1
x[254] 1
x[255] 0
x[256] 1
x[257] 1
x[258] 1
x[259] 0
x[260] 0
x[261] 1
x[262] 1
x[263] 1
x[264] 0
x[265] 0
x[266] 1
x[267] 1
x[268] 1
x[269] 1
x[270] 1
x[271] 0
x[272] 1
x[273] 0
x[274] 1
x[275] 0
x[276] 1
x[277] 1
x[278] 1
x[279] 1
x[280] 1
x[281] 0
x[282] 1
x[283] 0
x[284] 0
x[285] 1
x[286] 1
x[287] 1
x[288] 1
x[289] 0
x[290] 0
x[291] 0
x[292] 1
x[293] 1
x[294] 0
x[295] 0
x[296] 1
x[297] 1
x[298] 0
x[299] 1
x[300] 0
x[301] 0
x[302] 1
x[303] 1
x[304] 1
x[305] 1
x[306] 1
x[307] 0
x[308] 0
x[309] 0
x[310] 1
x[311] 1
x[312] 0
x[313] 1
x[314] 1
x[315] 1
x[316] 0
x[317] 1
x[318] 1
x[319] 0
x[320] 1
x[321] 0
x[322] 1
x[323] 1
x[324] 0
x[325] 0
x[326] 0
x[327] 0
x[328] 1
x[329] 1
x[330] 0
x[331] 1
x[332] 0
x[333] 0
x[334] 0
x[335] 0
x[336] 0
x[337] 1
x[338] 0
x[339] 0
x[340] 1
x[341] 0
x[342] 0
x[343] 0
x[344] 0
x[345] 0
x[346] 0
x[347] 0
x[348] 0
x[349] 1
x[350] 1
x[351] 1
x[352] 1
x[353] 0
x[354] 0
x[355] 1
x[356] 0
x[357] 1
x[358] 0
x[359] 1
x[360] 0
x[361] 1
x[362] 1
x[363] 1
x[364] 1
x[365] 1
x[366] 0
x[367] 1
x[368] 1
x[369] 0
x[370] 0
x[371] 0
x[372] 1
x[373] 0
x[374] 0
x[375] 0
x[376] 1
x[377] 0
x[378] 0
x[379] 1
x[380] 1
x[381] 0
x[382] 0
x[383] 1
x[384] 1
x[385] 0
x[386] 0
x[387] 1
x[388] 1
x[389] 0
x[390] 1
x[391] 1
x[392] 0
x[393] 0
x[394] 0
x[395] 0
x[396] 0
x[397] 0
x[398] 0
x[399] 1
x[400] 1
x[401] 0
x[402] 0
x[403] 1
x[404] 1
x[405] 0
x[406] 0
x[407] 1
x[408] 0
x[409] 0
x[410] 0
x[411] 1
x[412] 1
x[413] 0
x[414] 0
x[415] 0
x[416] 0
x[417] 0
x[418] 1
x[419] 1
x[420] 1
x[421] 0
x[422] 0
x[423] 1
x[424] 1
x[425] 1
x[426] 0
x[427] 0
x[428] 0
x[429] 0
x[430] 0
x[431] 0
x[432] 1
x[433] 0
x[434] 0
x[435] 0
x[436] 0
x[437] 0
x[438] 1
x[439] 1
x[440] 1
x[441] 0
x[442] 1
x[443] 1
x[444] 0
x[445] 0
x[446] 0
x[447] 0
x[448] 1
x[449] 1
x[450] 1
x[451] 1
x[452] 1
x[453] 1
x[454] 0
x[455] 1
x[456] 0
x[457] 1
x[458] 1
x[459] 0
x[460] 0
x[461] 1
x[462] 0
x[463] 0
x[464] 1
x[465] 1
x[466] 0
x[467] 1
x[468] 0
x[469] 0
x[470] 0
x[471] 0
x[472] 0
x[473] 1
x[474] 1
x[475] 0
x[476] 1
x[477] 1
x[478] 0
x[479] 0
x[480] 0
x[481] 1
x[482] 0
x[483] 1
x[484] 0
x[485] 0
x[486] 1
x[487] 1
x[488] 1
x[489] 0
x[490] 1
x[491] 0
x[492] 1
x[493] 1
x[494] 1
x[495] 0
x[496] 1
x[497] 0
x[498] 1
x[499] 0
x[500] 0
x[501] 1
x[502] 0
x[503] 0
x[504] 0
x[505] 1
x[506] 0
x[507] 1
x[508] 1
x[509] 0
x[510] 0
x[511] 1
x[512] 0
x[513] 0
x[514] 1
x[515] 0
x[516] 1
x[517] 1
x[518] 0
x[519] 0
x[520] 1
x[521] 1
x[522] 1
x[523] 1
x[524] 0
x[525] 0
x[526] 1
x[527] 1
x[528] 0
x[529] 0
x[530] 0
x[531] 0
x[532] 0
x[533] 0
x[534] 1
x[535] 1
x[536] 1
x[537] 1
x[538] 1
x[539] 0
x[540] 1
x[541] 1
x[542] 1
x[543] 1
x[544] 0
x[545] 1
x[546] 0
x[547] 0
x[548] 1
x[549] 1
x[550] 0
x[551] 0
x[552] 0
x[553] 0
x[554] 1
x[555] 0
x[556] 0
x[557] 0
x[558] 0
x[559] 0
x[560] 0
x[561] 1
x[562] 1
x[563] 0
x[564] 1
x[565] 1
x[566] 1
x[567] 1
x[568] 0
x[569] 0
x[570] 0
x[571] 0
x[572] 0
x[573] 0
x[574] 0
x[575] 1
x[576] 0
x[577] 0
x[578] 1
x[579] 0
x[580] 1
x[581] 1
x[582] 0
x[583] 1
x[584] 0
x[585] 0
x[586] 1
x[587] 1
x[588] 0
x[589] 0
x[590] 0
x[591] 0
x[592] 1
x[593] 1
x[594] 1
x[595] 0
x[596] 1
x[597] 0
x[598] 0
x[599] 1
x[600] 0
x[601] 1
x[602] 1
x[603] 1
x[604] 1
x[605] 0
x[606] 0
x[607] 1
x[608] 1
x[609] 0
x[610] 0
x[611] 1
x[612] 0
x[613] 1
x[614] 0
x[615] 1
x[616] 0
x[617] 1
x[618] 1
x[619] 0
x[620] 0
x[621] 1
x[622] 0
x[623] 1
x[624] 0
x[625] 0
x[626] 1
x[627] 1
x[628] 0
x[629] 0
x[630] 1
x[631] 0
x[632] 0
x[633] 1
x[634] 0
x[635] 0
x[636] 0
x[637] 1
x[638] 1
x[639] 1
x[640] 1
x[641] 1
x[642] 1
x[643] 0
x[644] 0
x[645] 1
x[646] 1
x[647] 0
x[648] 0
x[649] 1
x[650] 1
x[651] 0
x[652] 0
x[653] 1
x[654] 1
x[655] 1
x[656] 0
x[657] 1
x[658] 1
x[659] 0
x[660] 0
x[661] 0
x[662] 0
x[663] 1
x[664] 0
x[665] 0
x[666] 1
x[667] 0
x[668] 1
x[669] 1
x[670] 0
x[671] 1
x[672] 0
x[673] 0
x[674] 1
x[675] 0
x[676] 1
x[677] 1
x[678] 1
x[679] 0
x[680] 0
x[681] 0
x[682] 1
x[683] 1
x[684] 0
x[685] 0
x[686] 0
x[687] 1
x[688] 0
x[689] 1
x[690] 0
x[691] 0
x[692] 0
x[693] 1
x[694] 1
x[695] 1
x[696] 0
x[697] 1
x[698] 1
x[699] 0
x[700] 0
x[701] 1
x[702] 0
x[703] 0
x[704] 0
x[705] 1
x[706] 1
x[707] 1
x[708] 1
x[709] 1
x[710] 0
x[711] 1
x[712] 0
x[713] 0
x[714] 1
x[715] 0
x[716] 1
x[717] 1
x[718] 0
x[719] 0
x[720] 0
x[721] 0
x[722] 0
x[723] 0
x[724] 0
x[725] 0
x[726] 1
x[727] 1
x[728] 1
x[729] 0
x[730] 1
x[731] 0
x[732] 0
x[733] 0
x[734] 0
x[735] 1
x[736] 0
x[737] 1
x[738] 0
x[739] 0
x[740] 0
x[741] 0
x[742] 1
x[743] 1
x[744] 0
x[745] 1
x[746] 0
x[747] 0
x[748] 1
x[749] 0
x[750] 0
x[751] 1
x[752] 0
x[753] 0
x[754] 1
x[755] 1
x[756] 0
x[757] 0
x[758] 0
x[759] 1
x[760] 0
x[761] 0
x[762] 0
x[763] 1
x[764] 0
x[765] 0
x[766] 1
x[767] 1
x[768] 1
x[769] 1
x[770] 1
x[771] 1
x[772] 0
x[773] 0
x[774] 1
x[775] 1
x[776] 1
x[777] 1
x[778] 0
x[779] 1
x[780] 0
x[781] 0
x[782] 1
x[783] 1
x[784] 0
x[785] 0
x[786] 0
x[787] 1
x[788] 0
x[789] 0
x[790] 1
x[791] 1
x[792] 0
x[793] 1
x[794] 1
x[795] 0
x[796] 1
x[797] 1
x[798] 0
x[799] 1
x[800] 0
x[801] 0
x[802] 1
x[803] 0
x[804] 1
x[805] 1
x[806] 0
x[807] 0
x[808] 1
x[809] 1
x[810] 1
x[811] 1
x[812] 0
x[813] 0
x[814] 0
x[815] 1
x[816] 0
x[817] 1
x[818] 1
x[819] 1
x[820] 1
x[821] 1
x[822] 1
x[823] 0
x[824] 1
x[825] 0
x[826] 0
x[827] 0
x[828] 1
x[829] 0
x[830] 0
x[831] 0
x[832] 0
x[833] 0
x[834] 0
x[835] 1
x[836] 1
x[837] 0
x[838] 1
x[839] 0
x[840] 0
x[841] 0
x[842] 1
x[843] 1
x[844] 0
x[845] 1
x[846] 0
x[847] 1
x[848] 0
x[849] 0
x[850] 1
x[851] 1
x[852] 1
x[853] 0
x[854] 0
x[855] 1
x[856] 0
x[857] 0
x[858] 1
x[859] 1
x[860] 1
x[861] 1
x[862] 1
x[863] 1
x[864] 0
x[865] 1
x[866] 0
x[867] 0
x[868] 1
x[869] 0
x[870] 1
x[871] 1
x[872] 0
x[873] 0
x[874] 1
x[875] 0
x[876] 0
x[877] 0
x[878] 0
x[879] 1
x[880] 0
x[881] 0
x[882] 1
x[883] 0
x[884] 0
x[885] 0
x[886] 0
x[887] 1
x[888] 0
x[889] 1
x[890] 0
x[891] 1
x[892] 0
x[893] 0
x[894] 0
x[895] 1
x[896] 1
x[897] 1
x[898] 1
x[899] 1
x[900] 1
x[901] 1
x[902] 1
x[903] 0
x[904] 1
x[905] 1
x[906] 1
x[907] 0
x[908] 1
x[909] 1
x[910] 0
x[911] 0
x[912] 0
x[913] 0
x[914] 0
x[915] 1
x[916] 0
x[917] 0
x[918] 1
x[919] 0
x[920] 0
x[921] 1
x[922] 1
x[923] 1
x[924] 1
x[925] 0
x[926] 1
x[927] 0
x[928] 0
x[929] 1
x[930] 0
x[931] 0
x[932] 1
x[933] 0
x[934] 1
x[935] 1
x[936] 0
x[937] 1
x[938] 1
x[939] 1
x[940] 0
x[941] 0
x[942] 0
x[943] 0
x[944] 0
x[945] 0
x[946] 0
x[947] 0
x[948] 1
x[949] 0
x[950] 0
x[951] 1
x[952] 0
x[953] 1
x[954] 0
x[955] 1
x[956] 0
x[957] 1
x[958] 0
x[959] 1
x[960] 1
x[961] 0
x[962] 1
x[963] 1
x[964] 0
x[965] 1
x[966] 1
x[967] 1
x[968] 1
x[969] 0
x[970] 0
x[971] 1
x[972] 1
x[973] 1
x[974] 1
x[975] 0
x[976] 1
x[977] 0
x[978] 0
x[979] 0
x[980] 1
x[981] 0
x[982] 1
x[983] 0
x[984] 1
x[985] 0
x[986] 1
x[987] 1
x[988] 0
x[989] 1
x[990] 1
x[991] 0
x[992] 0
x[993] 1
x[994] 1
x[995] 0
x[996] 1
x[997] 0
x[998] 1
x[999] 1
